
     Program PWSCF v.7.3.1 starts on 14Oct2025 at  1:49: 7 

     This program is part of the open-source Quantum ESPRESSO suite
     for quantum simulation of materials; please cite
         "P. Giannozzi et al., J. Phys.:Condens. Matter 21 395502 (2009);
         "P. Giannozzi et al., J. Phys.:Condens. Matter 29 465901 (2017);
         "P. Giannozzi et al., J. Chem. Phys. 152 154105 (2020);
          URL http://www.quantum-espresso.org", 
     in publications or presentations arising from this work. More details at
     http://www.quantum-espresso.org/quote

     Parallel version (MPI & OpenMP), running on      15 processor cores
     Number of MPI processes:                15
     Threads/MPI process:                     1

     MPI processes distributed on     1 nodes
     716221 MiB available memory on the printing compute node when the environment starts

     Reading input from scf.in
     Message from routine read_cards :
     DEPRECATED: no units specified in CELL_PARAMETERS card

     Current dimensions of program PWSCF are:
     Max number of different atomic species (ntypx) = 10
     Max number of k-points (npk) =  40000
     Max angular momentum in pseudopotentials (lmaxx) =  4
     Message from routine setup:
     using ibrav=0 with symmetry is DISCOURAGED, use correct ibrav instead

     K-points division:     npool     =      15
     Subspace diagonalization in iterative solution of the eigenvalue problem:
     a serial algorithm will be used


     G-vector sticks info
     --------------------
     sticks:   dense  smooth     PW     G-vecs:    dense   smooth      PW
     Sum         559     559    187                 8801     8801    1639

     Using Slab Decomposition



     bravais-lattice index     =            0
     lattice parameter (alat)  =       4.7580  a.u.
     unit-cell volume          =      76.1657 (a.u.)^3
     number of atoms/cell      =            2
     number of atomic types    =            1
     number of electrons       =         8.00
     number of Kohn-Sham states=            6
     kinetic-energy cutoff     =      90.0000  Ry
     charge density cutoff     =     360.0000  Ry
     scf convergence threshold =      1.0E-10
     mixing beta               =       0.5000
     number of iterations used =            8  plain     mixing
     Exchange-correlation= PBE
                           (   1   4   3   4   0   0   0)

     celldm(1)=   4.758003  celldm(2)=   0.000000  celldm(3)=   0.000000
     celldm(4)=   0.000000  celldm(5)=   0.000000  celldm(6)=   0.000000

     crystal axes: (cart. coord. in units of alat)
               a(1) = (   0.000000   0.707107   0.707107 )  
               a(2) = (   0.707107   0.000000   0.707107 )  
               a(3) = (   0.707107   0.707107   0.000000 )  

     reciprocal axes: (cart. coord. in units 2 pi/alat)
               b(1) = ( -0.707107  0.707107  0.707107 )  
               b(2) = (  0.707107 -0.707107  0.707107 )  
               b(3) = (  0.707107  0.707107 -0.707107 )  


     PseudoPot. # 1 for C  read from file:
     /home/a.geondzhian/ocean_work_dir/C8/rixs/Common/psp/C.UPF
     MD5 check sum: 27c915b63bd28a200696aaf95d2c8ca5
     Pseudo is Norm-conserving + core correction, Zval =  4.0
     Generated using ONCVPSP code by D. R. Hamann
     Using radial grid of 1248 points,  4 beta functions with: 
                l(1) =   0
                l(2) =   0
                l(3) =   1
                l(4) =   1

     atomic species   valence    mass     pseudopotential
     C                 4.00    12.01070     C ( 1.00)

     48 Sym. Ops., with inversion, found (24 have fractional translation)



   Cartesian axes

     site n.     atom                  positions (alat units)
         1        C      tau(   1) = (   0.7071068   0.7071068   0.7071068  )
         2        C      tau(   2) = (   1.0606602   1.0606602   1.0606602  )

     number of k points=    44  Methfessel-Paxton smearing, width (Ry)=  0.0200
                       cart. coord. in units 2pi/alat
        k(    1) = (   0.0505076   0.0505076   0.0505076), wk =   0.0116618
        k(    2) = (   0.1515229   0.1515229  -0.0505076), wk =   0.0349854
        k(    3) = (   0.2525381   0.2525381  -0.1515229), wk =   0.0349854
        k(    4) = (  -0.3535534  -0.3535534   0.4545686), wk =   0.0349854
        k(    5) = (  -0.2525381  -0.2525381   0.3535534), wk =   0.0349854
        k(    6) = (  -0.1515229  -0.1515229   0.2525381), wk =   0.0349854
        k(    7) = (  -0.0505076  -0.0505076   0.1515229), wk =   0.0349854
        k(    8) = (   0.2525381   0.0505076   0.0505076), wk =   0.0349854
        k(    9) = (   0.3535534   0.1515229  -0.0505076), wk =   0.0699708
        k(   10) = (  -0.2525381  -0.4545686   0.5555839), wk =   0.0699708
        k(   11) = (  -0.1515229  -0.3535534   0.4545686), wk =   0.0699708
        k(   12) = (  -0.0505076  -0.2525381   0.3535534), wk =   0.0699708
        k(   13) = (   0.0505076  -0.1515229   0.2525381), wk =   0.0699708
        k(   14) = (   0.4545686   0.0505076   0.0505076), wk =   0.0349854
        k(   15) = (  -0.1515229  -0.5555839   0.6565992), wk =   0.0699708
        k(   16) = (  -0.0505076  -0.4545686   0.5555839), wk =   0.0699708
        k(   17) = (   0.0505076  -0.3535534   0.4545686), wk =   0.0699708
        k(   18) = (   0.1515229  -0.2525381   0.3535534), wk =   0.0699708
        k(   19) = (  -0.7576144   0.0505076   0.0505076), wk =   0.0349854
        k(   20) = (  -0.6565992   0.1515229  -0.0505076), wk =   0.0699708
        k(   21) = (  -0.5555839   0.2525381  -0.1515229), wk =   0.0699708
        k(   22) = (  -0.4545686   0.3535534  -0.2525381), wk =   0.0349854
        k(   23) = (  -0.5555839   0.0505076   0.0505076), wk =   0.0349854
        k(   24) = (  -0.4545686   0.1515229  -0.0505076), wk =   0.0699708
        k(   25) = (  -0.3535534   0.0505076   0.0505076), wk =   0.0349854
        k(   26) = (   0.1515229   0.1515229   0.1515229), wk =   0.0116618
        k(   27) = (   0.2525381   0.2525381   0.0505076), wk =   0.0349854
        k(   28) = (  -0.3535534  -0.3535534   0.6565992), wk =   0.0349854
        k(   29) = (  -0.2525381  -0.2525381   0.5555839), wk =   0.0349854
        k(   30) = (  -0.1515229  -0.1515229   0.4545686), wk =   0.0349854
        k(   31) = (   0.3535534   0.1515229   0.1515229), wk =   0.0349854
        k(   32) = (  -0.2525381  -0.4545686   0.7576144), wk =   0.0699708
        k(   33) = (  -0.1515229  -0.3535534   0.6565992), wk =   0.0699708
        k(   34) = (  -0.0505076  -0.2525381   0.5555839), wk =   0.0699708
        k(   35) = (  -0.8586297   0.1515229   0.1515229), wk =   0.0349854
        k(   36) = (  -0.7576144   0.2525381   0.0505076), wk =   0.0699708
        k(   37) = (  -0.6565992   0.3535534  -0.0505076), wk =   0.0349854
        k(   38) = (  -0.6565992   0.1515229   0.1515229), wk =   0.0349854
        k(   39) = (   0.2525381   0.2525381   0.2525381), wk =   0.0116618
        k(   40) = (  -0.3535534  -0.3535534   0.8586297), wk =   0.0349854
        k(   41) = (  -0.2525381  -0.2525381   0.7576144), wk =   0.0349854
        k(   42) = (  -0.9596449   0.2525381   0.2525381), wk =   0.0349854
        k(   43) = (  -0.8586297   0.3535534   0.1515229), wk =   0.0349854
        k(   44) = (  -0.3535534  -0.3535534  -0.3535534), wk =   0.0058309

     Dense  grid:     8801 G-vectors     FFT dimensions: (  32,  32,  32)

     Estimated max dynamical RAM per process >       7.42 MB

     Estimated total dynamical RAM >      81.29 MB

     Initial potential from superposition of free atoms

     starting charge       7.9999, renormalised to       8.0000
     Starting wfcs are    8 randomized atomic wfcs

     total cpu time spent up to now is        0.3 secs

     Self-consistent Calculation

     iteration #  1     ecut=    90.00 Ry     beta= 0.50
     Davidson diagonalization with overlap
     ethr =  1.00E-02,  avg # of iterations =  3.0

     total cpu time spent up to now is        0.4 secs

     total energy              =     -24.07670322 Ry
     estimated scf accuracy    <       0.11174630 Ry

     iteration #  2     ecut=    90.00 Ry     beta= 0.50
     Davidson diagonalization with overlap
     ethr =  1.40E-03,  avg # of iterations =  1.2

     total cpu time spent up to now is        0.4 secs

     total energy              =     -24.07343452 Ry
     estimated scf accuracy    <       0.01853647 Ry

     iteration #  3     ecut=    90.00 Ry     beta= 0.50
     Davidson diagonalization with overlap
     ethr =  2.32E-04,  avg # of iterations =  3.0

     total cpu time spent up to now is        0.5 secs

     total energy              =     -24.07564416 Ry
     estimated scf accuracy    <       0.00019859 Ry

     iteration #  4     ecut=    90.00 Ry     beta= 0.50
     Davidson diagonalization with overlap
     ethr =  2.48E-06,  avg # of iterations =  7.4

     total cpu time spent up to now is        0.6 secs

     total energy              =     -24.07572007 Ry
     estimated scf accuracy    <       0.00009262 Ry

     iteration #  5     ecut=    90.00 Ry     beta= 0.50
     Davidson diagonalization with overlap
     ethr =  1.16E-06,  avg # of iterations =  2.0

     total cpu time spent up to now is        0.7 secs

     total energy              =     -24.07573083 Ry
     estimated scf accuracy    <       0.00000102 Ry

     iteration #  6     ecut=    90.00 Ry     beta= 0.50
     Davidson diagonalization with overlap
     ethr =  1.28E-08,  avg # of iterations =  2.5

     total cpu time spent up to now is        0.8 secs

     total energy              =     -24.07573098 Ry
     estimated scf accuracy    <       0.00000050 Ry

     iteration #  7     ecut=    90.00 Ry     beta= 0.50
     Davidson diagonalization with overlap
     ethr =  6.21E-09,  avg # of iterations =  1.7

     total cpu time spent up to now is        0.8 secs

     total energy              =     -24.07573103 Ry
     estimated scf accuracy    <          2.6E-09 Ry

     iteration #  8     ecut=    90.00 Ry     beta= 0.50
     Davidson diagonalization with overlap
     ethr =  3.30E-11,  avg # of iterations =  4.1

     total cpu time spent up to now is        0.9 secs

     End of self-consistent calculation

          k = 0.0505 0.0505 0.0505 (  1091 PWs)   bands (ev):

    -7.9652  12.5131  13.2053  13.2053  19.4085  19.4087

          k = 0.1515 0.1515-0.0505 (  1091 PWs)   bands (ev):

    -7.2128   9.6757  11.2723  12.7791  20.0759  21.0528

          k = 0.2525 0.2525-0.1515 (  1097 PWs)   bands (ev):

    -5.3656   4.9013  10.2467  11.5172  21.5167  22.1379

          k =-0.3536-0.3536 0.4546 (  1104 PWs)   bands (ev):

    -2.7002   0.7358   9.9814  10.5834  21.9173  22.2428

          k =-0.2525-0.2525 0.3536 (  1103 PWs)   bands (ev):

    -3.6125   1.9530  10.3331  10.4785  21.4791  22.6193

          k =-0.1515-0.1515 0.2525 (  1091 PWs)   bands (ev):

    -6.0973   6.4838  10.8675  11.5765  20.6129  22.3529

          k =-0.0505-0.0505 0.1515 (  1099 PWs)   bands (ev):

    -7.5882  11.1499  12.0731  12.7453  19.1612  20.8459

          k = 0.2525 0.0505 0.0505 (  1099 PWs)   bands (ev):

    -6.8382   9.6216  10.6545  11.4104  18.7485  22.8259

          k = 0.3536 0.1515-0.0505 (  1095 PWs)   bands (ev):

    -5.3594   6.7458   8.6690  10.3663  19.6361  23.9355

          k =-0.2525-0.4546 0.5556 (  1102 PWs)   bands (ev):

    -2.9071   2.5338   8.0373   9.2489  20.8317  23.7506

          k =-0.1515-0.3536 0.4546 (  1102 PWs)   bands (ev):

    -2.0228   1.3881   7.4978   9.4924  21.5532  23.0881

          k =-0.0505-0.2525 0.3536 (  1090 PWs)   bands (ev):

    -4.6388   5.3431   7.5470  10.7388  21.6354  22.5380

          k = 0.0505-0.1515 0.2525 (  1097 PWs)   bands (ev):

    -6.4665   8.1507   9.9565  11.9382  19.9936  22.4165

          k = 0.4546 0.0505 0.0505 (  1087 PWs)   bands (ev):

    -4.2614   6.3781   8.0742   8.3119  18.0711  21.9380

          k =-0.1515-0.5556 0.6566 (  1088 PWs)   bands (ev):

    -2.1527   3.9439   6.3403   7.4739  19.2221  21.7054

          k =-0.0505-0.4546 0.5556 (  1105 PWs)   bands (ev):

    -0.0514   1.8836   4.4068   7.9149  20.1349  25.5678

          k = 0.0505-0.3536 0.4546 (  1100 PWs)   bands (ev):

    -2.2378   3.0968   5.5261   9.2613  21.3771  23.9684

          k = 0.1515-0.2525 0.3536 (  1097 PWs)   bands (ev):

    -4.2889   3.5592   9.2319  10.6503  21.3347  22.6677

          k =-0.7576 0.0505 0.0505 (  1103 PWs)   bands (ev):

    -0.4161   1.8499   6.6833   7.2284  18.2591  19.1774

          k =-0.6566 0.1515-0.0505 (  1106 PWs)   bands (ev):

    -0.1505   1.9829   5.6948   7.0055  19.2436  20.8835

          k =-0.5556 0.2525-0.1515 (  1100 PWs)   bands (ev):

    -1.3353   1.9030   6.2535   8.3068  20.3873  25.1033

          k =-0.4546 0.3536-0.2525 (  1102 PWs)   bands (ev):

    -1.9686   0.3519   9.1503   9.9754  21.7484  22.4429

          k =-0.5556 0.0505 0.0505 (  1093 PWs)   bands (ev):

    -2.4774   4.1938   7.1179   7.5938  18.0313  20.2699

          k =-0.4546 0.1515-0.0505 (  1090 PWs)   bands (ev):

    -3.9103   5.4430   7.4834   8.6261  19.3488  23.1485

          k =-0.3536 0.0505 0.0505 (  1091 PWs)   bands (ev):

    -5.7239   8.1079   9.3529   9.6607  18.3414  24.0753

          k = 0.1515 0.1515 0.1515 (  1098 PWs)   bands (ev):

    -6.8393   8.0572  11.9902  11.9902  20.9679  20.9680

          k = 0.2525 0.2525 0.0505 (  1096 PWs)   bands (ev):

    -5.7290   6.6682   8.7435  11.8136  21.4346  22.1824

          k =-0.3536-0.3536 0.6566 (  1102 PWs)   bands (ev):

    -3.5826   4.0941   6.4392  10.4231  21.4887  23.4385

          k =-0.2525-0.2525 0.5556 (  1100 PWs)   bands (ev):

    -1.3096   1.0028   6.8502   9.2358  20.4236  24.9588

          k =-0.1515-0.1515 0.4546 (  1094 PWs)   bands (ev):

    -3.5675   3.9935   8.1448   8.8315  19.6278  24.7107

          k = 0.3536 0.1515 0.1515 (  1098 PWs)   bands (ev):

    -4.9988   5.1132   9.7566  10.1403  20.1251  23.9494

          k =-0.2525-0.4546 0.7576 (  1096 PWs)   bands (ev):

    -3.2224   4.2305   6.5161   9.0212  21.4594  23.3811

          k =-0.1515-0.3536 0.6566 (  1102 PWs)   bands (ev):

    -0.7235   2.4003   4.9045   7.5479  22.1706  24.0827

          k =-0.0505-0.2525 0.5556 (  1098 PWs)   bands (ev):

    -1.5343   3.2558   5.6304   7.2960  21.3239  23.6722

          k =-0.8586 0.1515 0.1515 (  1098 PWs)   bands (ev):

    -1.8526   3.0593   6.0615   8.1792  19.2233  23.6257

          k =-0.7576 0.2525 0.0505 (  1099 PWs)   bands (ev):

     0.2901   2.0723   4.8892   6.3717  21.2749  23.2716

          k =-0.6566 0.3536-0.0505 (  1104 PWs)   bands (ev):

     0.5706   2.0148   4.6534   6.0122  23.3197  24.2752

          k =-0.6566 0.1515 0.1515 (  1108 PWs)   bands (ev):

     0.0064   1.9342   4.6237   7.8438  18.9964  23.0918

          k = 0.2525 0.2525 0.2525 (  1089 PWs)   bands (ev):

    -4.6497   3.2787  10.9831  10.9831  21.8708  21.8714

          k =-0.3536-0.3536 0.8586 (  1105 PWs)   bands (ev):

    -3.2627   2.2699   8.3856  10.4930  21.6731  22.8657

          k =-0.2525-0.2525 0.7576 (  1110 PWs)   bands (ev):

    -1.0658   2.2399   4.7468   8.9808  20.1352  25.8835

          k =-0.9596 0.2525 0.2525 (  1101 PWs)   bands (ev):

    -2.3554   1.0566   8.9265   9.7114  20.9277  23.7190

          k =-0.8586 0.3536 0.1515 (  1102 PWs)   bands (ev):

    -0.9835   1.3030   6.4219   8.2118  21.9881  23.2315

          k =-0.3536-0.3536-0.3536 (  1104 PWs)   bands (ev):

    -2.3018   0.0067  10.6248  10.6248  21.9880  21.9893

     the Fermi energy is    16.3262 ev

!    total energy              =     -24.07573104 Ry
     estimated scf accuracy    <          1.5E-11 Ry
     smearing contrib. (-TS)   =       0.00000000 Ry
     internal energy E=F+TS    =     -24.07573104 Ry

     The total energy is F=E-TS. E is the sum of the following terms:
     one-electron contribution =       8.30415325 Ry
     hartree contribution      =       1.92689286 Ry
     xc contribution           =      -8.68903098 Ry
     ewald contribution        =     -25.61774617 Ry

     convergence has been achieved in   8 iterations

     Forces acting on atoms (cartesian axes, Ry/au):

     atom    1 type  1   force =    -0.00000000   -0.00000000    0.00000000
     atom    2 type  1   force =     0.00000000    0.00000000   -0.00000000

     Total force =     0.000000     Total SCF correction =     0.000000

     Writing all to output data dir Out/system.save/ :
     XML data file, charge density, pseudopotentials, collected wavefunctions

     init_run     :      0.22s CPU      0.23s WALL (       1 calls)
     electrons    :      0.62s CPU      0.66s WALL (       1 calls)
     forces       :      0.02s CPU      0.02s WALL (       1 calls)

     Called by init_run:
     wfcinit      :      0.02s CPU      0.02s WALL (       1 calls)
     potinit      :      0.08s CPU      0.08s WALL (       1 calls)
     hinit0       :      0.11s CPU      0.12s WALL (       1 calls)

     Called by electrons:
     c_bands      :      0.40s CPU      0.41s WALL (       8 calls)
     sum_band     :      0.08s CPU      0.09s WALL (       8 calls)
     v_of_rho     :      0.11s CPU      0.13s WALL (       9 calls)
     mix_rho      :      0.01s CPU      0.01s WALL (       8 calls)

     Called by c_bands:
     init_us_2    :      0.01s CPU      0.01s WALL (      54 calls)
     cegterg      :      0.32s CPU      0.33s WALL (      24 calls)

     Called by *egterg:
     cdiaghg      :      0.01s CPU      0.01s WALL (     108 calls)
     h_psi        :      0.31s CPU      0.32s WALL (     111 calls)
     g_psi        :      0.00s CPU      0.00s WALL (      84 calls)

     Called by h_psi:
     h_psi:calbec :      0.01s CPU      0.01s WALL (     111 calls)
     vloc_psi     :      0.29s CPU      0.31s WALL (     111 calls)
     add_vuspsi   :      0.01s CPU      0.01s WALL (     111 calls)

     General routines
     calbec       :      0.01s CPU      0.01s WALL (     123 calls)
     fft          :      0.02s CPU      0.04s WALL (     100 calls)
     ffts         :      0.00s CPU      0.00s WALL (       8 calls)
     fftw         :      0.31s CPU      0.32s WALL (    1038 calls)

     Parallel routines

     PWSCF        :      0.91s CPU      0.97s WALL


   This run was terminated on:   1:49: 8  14Oct2025            

=------------------------------------------------------------------------------=
   JOB DONE.
=------------------------------------------------------------------------------=
[WARNING] yaksa: 2 leaked handle pool objects
[WARNING] yaksa: 2 leaked handle pool objects
[WARNING] yaksa: 2 leaked handle pool objects
[WARNING] yaksa: 2 leaked handle pool objects
[WARNING] yaksa: 2 leaked handle pool objects
[WARNING] yaksa: 2 leaked handle pool objects
[WARNING] yaksa: 2 leaked handle pool objects
[WARNING] yaksa: 2 leaked handle pool objects
[WARNING] yaksa: 2 leaked handle pool objects
[WARNING] yaksa: 2 leaked handle pool objects
[WARNING] yaksa: 2 leaked handle pool objects
[WARNING] yaksa: 2 leaked handle pool objects
[WARNING] yaksa: 2 leaked handle pool objects
[WARNING] yaksa: 2 leaked handle pool objects
[WARNING] yaksa: 2 leaked handle pool objects
